
(set-logic ALL) 

(declare-datatype MyList ((Nil) (Cons (head Real) (tail MyList)) )) 
(declare-fun l0 () MyList) 
(declare-fun l1 () MyList) 
(declare-fun l2 () MyList) 
(declare-fun l3 () MyList) 
(declare-fun i0 () Real) 
(declare-fun i1 () Real) 
(assert (is-Cons l3) )
(assert (not (= l3 Nil)) )
(assert (= l2 l1) )
(assert (and (= l0 l0) (is-Nil Nil) (= l1 Nil)) )
(assert (not (= l2 l0)) )
(assert (and (= l0 Nil) (= l3 Nil)) )
(assert (is-Nil Nil) )
(assert (and (= l0 Nil) (= l2 Nil) (is-Nil Nil) (= l2 Nil)) )
(check-sat)
